sing20230703.12
TTAA  53111 48698
99007 27426 20004 00096 27417 14502 92781 22813 13512
85516 18202 23002 70160 10035 32008 50589 05719 05512
40762 14946 07016 30973 29760 06023 25101 40545 08527
20249 52358 06547 15429 66561 08054 10666 75160 33012
88114 76759 06033
77159 08062 41121=
TTCC  53113 48698
70876 70768 29541 50075 65573 27012 30391 60580 08529
88654 72768 28549
77999=
TTDD  5311/ 48698
11875 76561 22790 70166 33744 68967 44654 72768 55572 72169
66523 70570 77505 66173 88415 60777 99326 61978 11283 60780
22249 55984
21212 11978 27516 22922 25023 33812 28523 44741 28545 55669
28551 66629 28037 77590 29018 88568 25014 99553 25023 11532
26519 22516 25506 33466 29506 44460 25506 55419 28516 66399
26012 77384 20518 88349 25018 99331 31512 11322 02012 22313
07016 33268 08031 44249 10529=
